Route #1: 171 85 173 126 49 140 104 33 119 8 73 14
Route #2: 152 166 143 123 120 165 34 132 117 64 177 4 24
Route #3: 65 50 92 44 138 21 147 55 48 179 70 63 148 158
Route #4: 47 125 137 169 146 76 46 57 62 56 167 141 127
Route #5: 153 130 131 10 6 133 160 25 109 105 23 32 31
Route #6: 88 59 37 15 185 7 90 1 144 163 103 116 18 121 72
Route #7: 101 100 114 142 156 79 113 178 174 96 40 22
Route #8: 52 115 118 36 61 157 17 80 110 149 3 161
Route #9: 39 29 150 106 81 75 78 134 83 51 136 87 164
Route #10: 67 111 38 41 43 108 170 181 53 86 42 124
Route #11: 154 5 162 168 145 95 91 45 128 74 12 129
Route #12: 99 84 27 89 98 151 122 139 102 97 82 175
Route #13: 28 2 30 93 182 183 9 77 159 69 107 26 60
Route #14: 184 71 135 66 20 112 54 94 11 180 35 19 16
Route #15: 172 68 155 58 176 13
